jlh_hotel = 10; 

Nama_Hotel = {GranMahakam,TheDharmawangsa,Ambhara,GoldenBoutiqueMelawai,Amaris,Fortune,CrownePlazaJakarta,JWMariottHotel,TheParkLaneJakarta,TheRitzCarltonPacificPlace};
golongan = {Bintang_1,Bintang_2,Bintang_3,Bintang_4,Bintang_5};
jenis = {Hotel_Bintang};

hotel = array2d(Nama_Hotel,1..5, 
[
GranMahakam                 ,Bintang_5 ,Hotel_Bintang ,158, 100000,
TheDharmawangsa             ,Bintang_5 ,Hotel_Bintang ,100, 200000,
Ambhara                     ,Bintang_4 ,Hotel_Bintang ,222, 300000,
GoldenBoutiqueMelawai       ,Bintang_3 ,Hotel_Bintang ,73, 400000,
Amaris                      ,Bintang_3 ,Hotel_Bintang ,56, 500000,
Fortune                     ,Bintang_3 ,Hotel_Bintang ,50, 600000,
CrownePlazaJakarta          ,Bintang_5 ,Hotel_Bintang ,373, 700000,
JWMariottHotel              ,Bintang_5 ,Hotel_Bintang ,333, 800000,
TheParkLaneJakarta          ,Bintang_5 ,Hotel_Bintang ,287, 900000,
TheRitzCarltonPacificPlace  ,Bintang_5 ,Hotel_Bintang ,63, 1000000,
]);